SCIP Status        : solving was interrupted [time limit reached]
Total Time         :    3600.02
  solving          :    3600.00
  presolving       :       0.14 (included in solving)
  reading          :       0.02
  copying          :       0.08 (11 #copies) (minimal 0.00, maximal 0.01, average 0.01)
Original Problem   :
  Problem name     : benchmark/block2_55_11_10_11.design
  Variables        : 1466 (55 binary, 0 integer, 0 implicit integer, 1411 continuous)
  Constraints      : 2028 initial, 2028 maximal
  Objective        : minimize, 1 non-zeros (abs.min = 1, abs.max = 1)
Presolved Problem  :
  Problem name     : t_benchmark/block2_55_11_10_11.design
  Variables        : 2128 (55 binary, 0 integer, 0 implicit integer, 2073 continuous)
  Constraints      : 2028 initial, 2031 maximal
  Objective        : minimize, 1 non-zeros (abs.min = 1, abs.max = 1)
  Nonzeros         : 6922 constraint, 0 clique table
Presolvers         :   ExecTime  SetupTime  Calls  FixedVars   AggrVars   ChgTypes  ChgBounds   AddHoles    DelCons    AddCons   ChgSides   ChgCoefs
  boundshift       :       0.00       0.00      0          0          0          0          0          0          0          0          0          0
  convertinttobin  :       0.00       0.00      0          0          0          0          0          0          0          0          0          0
  domcol           :       0.00       0.00      1          0          0          0          0          0          0          0          0          0
  dualagg          :       0.00       0.00      0          0          0          0          0          0          0          0          0          0
  dualcomp         :       0.00       0.00      1          0          0          0          0          0          0          0          0          0
  dualinfer        :       0.00       0.00      0          0          0          0          0          0          0          0          0          0
  dualsparsify     :       0.00       0.00      1          0          0          0          0          0          0          0          0          0
  gateextraction   :       0.00       0.00      0          0          0          0          0          0          0          0          0          0
  implics          :       0.00       0.00      1          0          0          0          0          0          0          0          0          0
  inttobinary      :       0.00       0.00      0          0          0          0          0          0          0          0          0          0
  qpkktref         :       0.00       0.00      0          0          0          0          0          0          0          0          0          0
  redvub           :       0.00       0.00      0          0          0          0          0          0          0          0          0          0
  sparsify         :       0.00       0.00      1          0          0          0          0          0          0          0          0          0
  stuffing         :       0.00       0.00      0          0          0          0          0          0          0          0          0          0
  trivial          :       0.00       0.00      2         45          0          0          0          0          0          0          0          0
  tworowbnd        :       0.00       0.00      0          0          0          0          0          0          0          0          0          0
  dualfix          :       0.00       0.00      2         45          0          0          0          0          0          0          0          0
  genvbounds       :       0.00       0.00      0          0          0          0          0          0          0          0          0          0
  probing          :       0.02       0.00      1          0          0          0          0          0          0          0          0          0
  pseudoobj        :       0.00       0.00      0          0          0          0          0          0          0          0          0          0
  symmetry         :       0.00       0.00      1          0          0          0          0          0          0          0          0          0
  vbounds          :       0.00       0.00      0          0          0          0          0          0          0          0          0          0
  linear           :       0.01       0.01      3          0          0          0          0          0          0          0          0          0
  nonlinear        :       0.10       0.02      4          0          0          0        100          0          0          0          0          0
  benders          :       0.00       0.00      0          0          0          0          0          0          0          0          0          0
  components       :       0.00       0.00      1          0          0          0          0          0          0          0          0          0
  root node        :          -          -      -          0          -          -       2701          -          -          -          -          -
Constraints        :     Number  MaxNumber  #Separate #Propagate    #EnfoLP    #EnfoRelax  #EnfoPS    #Check   #ResProp    Cutoffs    DomReds       Cuts    Applied      Conss   Children
  benderslp        :          0          0          0          0      18227          0          0      17808          0          0          0          0          0          0          0
  integral         :          0          0          0          0      18227          0          0      17808          0          0       4428          0          0          0      35776
  linear           :       1377+      1380         87     584012          0          0          0      17802          0         51      20304         31          1          0          0
  nonlinear        :        651        651     186859     583961          0          0          0      12606          0        142     512237    3513496    3472275          0          0
  benders          :          0          0          0          0          0          0          0          5          0          0          0          0          0          0          0
  countsols        :          0          0          0          0          0          0          0          5          0          0          0          0          0          0          0
  components       :          0          0          0          0          0          0          0          0          0          0          0          0          0          0          0
Constraint Timings :  TotalTime  SetupTime   Separate  Propagate     EnfoLP     EnfoPS     EnfoRelax   Check    ResProp    SB-Prop
  benderslp        :       0.01       0.00       0.00       0.00       0.00       0.00       0.00       0.01       0.00       0.00
  integral         :      19.98       0.00       0.00       0.00      19.97       0.00       0.00       0.01       0.00       0.00
  linear           :      11.51       0.01       0.01      10.81       0.00       0.00       0.00       0.65       0.00       0.03
  nonlinear        :     333.91       0.02     261.47      66.72       0.00       0.00       0.00       5.38       0.00       0.32
  benders          :       0.00       0.00       0.00       0.00       0.00       0.00       0.00       0.00       0.00       0.00
  countsols        :       0.00       0.00       0.00       0.00       0.00       0.00       0.00       0.00       0.00       0.00
  components       :       0.05       0.00       0.00       0.05       0.00       0.00       0.00       0.00       0.00       0.00
Propagators        : #Propagate   #ResProp    Cutoffs    DomReds
  dualfix          :          2          0          0          0
  genvbounds       :          0          0          0          0
  nlobbt           :          0          0          0          0
  obbt             :          0          0          0          0
  probing          :          0          0          0          0
  pseudoobj        :      54169          0          0         13
  redcost          :     223316          0          0          0
  rootredcost      :          4          0          0       2037
  symmetry         :          0          0          0          0
  vbounds          :     145584          0          0          0
Propagator Timings :  TotalTime  SetupTime   Presolve  Propagate    ResProp    SB-Prop
  dualfix          :       0.00       0.00       0.00       0.00       0.00       0.00
  genvbounds       :       0.38       0.00       0.00       0.38       0.00       0.00
  nlobbt           :       0.00       0.00       0.00       0.00       0.00       0.00
  obbt             :       0.00       0.00       0.00       0.00       0.00       0.00
  probing          :       0.02       0.00       0.02       0.00       0.00       0.00
  pseudoobj        :       0.34       0.00       0.00       0.34       0.00       0.00
  redcost          :       3.22       0.00       0.00       3.22       0.00       0.00
  rootredcost      :       0.19       0.00       0.00       0.19       0.00       0.00
  symmetry         :       0.11       0.00       0.00       0.11       0.00       0.00
  vbounds          :       0.23       0.00       0.00       0.23       0.00       0.00
Conflict Analysis  :       Time      Calls    Success    DomReds  Conflicts   Literals    Reconvs ReconvLits   Dualrays   Nonzeros   LP Iters   (pool size: [--,--])
  propagation      :       0.00         40          0          -          0        0.0          0        0.0          -          -          -
  infeasible LP    :       0.00          0          0          -          0        0.0          0        0.0         15      256.3          0
  bound exceed. LP :       0.14         56         15          -          0        0.0          0        0.0          0        0.0        551
  strong branching :       0.00          0          0          -          0        0.0          0        0.0          -          -          0
  pseudo solution  :       0.00          0          0          -          0        0.0          0        0.0          -          -          -
  applied globally :       0.00          -          -          0          0        0.0          -          -         15          -          -
  applied locally  :          -          -          -          0          0        0.0          -          -          0          -          -
Separators         :   ExecTime  SetupTime      Calls  RootCalls    Cutoffs    DomReds  FoundCuts ViaPoolAdd  DirectAdd    Applied ViaPoolApp  DirectApp      Conss
  cut pool         :       0.01          -       2246         82          -          -         39         52          -          -          -          -          -    (maximal pool size:          4)
  aggregation      :       9.47       0.00       6754         87          0          0          0          0          0          0          0          0          0
  > cmir           :          -          -          -          -          -          -          -          0          0          0          0          0          -
  > flowcover      :          -          -          -          -          -          -          -          0          0          0          0          0          -
  > knapsackcover  :          -          -          -          -          -          -          -          0          0          0          0          0          -
  cgmip            :       0.00       0.00          0          0          0          0          0          0          0          0          0          0          0
  clique           :       0.00       0.00          1          1          0          0          0          0          0          0          0          0          0
  closecuts        :       0.00       0.00          0          0          0          0          0          0          0          0          0          0          0
  convexproj       :       0.00       0.00          0          0          0          0          0          0          0          0          0          0          0
  disjunctive      :       0.00       0.00          0          0          0          0          0          0          0          0          0          0          0
  eccuts           :       0.00       0.00          0          0          0          0          0          0          0          0          0          0          0
  gauge            :       0.00       0.00          0          0          0          0          0          0          0          0          0          0          0
  gomory           :       2.78       0.00       3078         10          0          0         39         52          0         23         23          0          0
  > gomorymi       :          -          -          -          -          -          -          -         52          0         23         23          0          -
  > strongcg       :          -          -          -          -          -          -          -          0          0          0          0          0          -
  impliedbounds    :       0.44       0.00       6754         87          0          0          0          0          0          0          0          0          0
  interminor       :       0.00       0.00          0          0          0          0          0          0          0          0          0          0          0
  intobj           :       0.00       0.00          0          0          0          0          0          0          0          0          0          0          0
  mcf              :       0.00       0.00          2          2          0          0          0          0          0          0          0          0          0
  minor            :       0.03       0.00          0          0          0          0          0          0          0          0          0          0          0
  mixing           :       0.23       0.00       6754         87          0          0          0          0          0          0          0          0          0
  oddcycle         :       0.00       0.00          0          0          0          0          0          0          0          0          0          0          0
  rapidlearning    :       0.00       0.00          0          0          0          0          0          0          0          0          0          0          0
  rlt              :       0.00       0.00         10         10          0          0          0          0          0          0          0          0          0
  zerohalf         :       0.98       0.00       3088         20          0          0          0          0          0          0          0          0          0
Cutselectors       :   ExecTime  SetupTime      Calls  RootCalls   Selected     Forced   Filtered  RootSelec   RootForc   RootFilt 
  hybrid           :       1.77       0.00     186859         87    3472299          0      41280       4217          0        229
Pricers            :   ExecTime  SetupTime      Calls       Vars
  problem variables:       0.00          -          0          0
Branching Rules    :   ExecTime  SetupTime   BranchLP  BranchExt   BranchPS    Cutoffs    DomReds       Cuts      Conss   Children
  allfullstrong    :       0.00       0.00          0          0          0          0          0          0          0          0
  cloud            :       0.00       0.00          0          0          0          0          0          0          0          0
  distribution     :       0.00       0.00          0          0          0          0          0          0          0          0
  fullstrong       :       0.00       0.00          0          0          0          0          0          0          0          0
  inference        :       0.00       0.00          0          0          0          0          0          0          0          0
  leastinf         :       0.00       0.00          0          0          0          0          0          0          0          0
  lookahead        :       0.00       0.00          0          0          0          0          0          0          0          0
  mostinf          :       0.00       0.00          0          0          0          0          0          0          0          0
  multaggr         :       0.00       0.00          0          0          0          0          0          0          0          0
  nodereopt        :       0.00       0.00          0          0          0          0          0          0          0          0
  pscost           :       0.00       0.00          0          0          0          0          0          0          0          0
  random           :       0.00       0.00          0          0          0          0          0          0          0          0
  relpscost        :      19.90       0.00      18227          0          0          0       4428          0          0      35776
  vanillafullstrong:       0.00       0.00          0          0          0          0          0          0          0          0
Primal Heuristics  :   ExecTime  SetupTime      Calls      Found       Best
  LP solutions     :       0.00          -          -          0          0
  relax solutions  :       0.00          -          -          0          0
  pseudo solutions :       0.00          -          -          0          0
  strong branching :       0.00          -          -          0          0
  actconsdiving    :       0.00       0.00          0          0          0
  adaptivediving   :       3.15       0.00         56          0          0
  alns             :       6.78       0.00          9          1          1
  bound            :       0.00       0.00          0          0          0
  clique           :       0.00       0.00          0          0          0
  coefdiving       :       0.00       0.00          0          0          0
  completesol      :       0.00       0.00          0          0          0
  conflictdiving   :      45.58       0.00        561          0          0
  crossover        :      47.97       0.00          1          1          1
  dins             :       0.00       0.00          0          0          0
  distributiondivin:     452.64       0.00        822          0          0
  dps              :       0.00       0.00          0          0          0
  dualval          :       0.00       0.00          0          0          0
  farkasdiving     :       0.00       0.00          0          0          0
  feaspump         :      32.12       0.00        147          0          0
  fixandinfer      :       0.00       0.00          0          0          0
  fracdiving       :      55.44       0.00        823          0          0
  gins             :       0.01       0.00          0          0          0
  guideddiving     :      59.78       0.00        826          0          0
  indicator        :       0.14       0.00          0          0          0
  indicatordiving  :       0.00       0.00          0          0          0
  intdiving        :       0.00       0.00          0          0          0
  intshifting      :       1.75       0.00         45          0          0
  linesearchdiving :      41.47       0.00        827          0          0
  localbranching   :       0.00       0.00          0          0          0
  locks            :       0.03       0.00          1          0          0
  lpface           :       0.01       0.00          0          0          0
  mpec             :       3.21       0.00          1          0          0
  multistart       :       0.00       0.00          0          0          0
  mutation         :       0.00       0.00          0          0          0
  nlpdiving        :       4.38       0.00          2          0          0
  objpscostdiving  :      11.67       0.00         16          0          0
  octane           :       0.00       0.00          0          0          0
  ofins            :       0.02       0.00          0          0          0
  oneopt           :       0.01       0.00          4          0          0
  padm             :       0.00       0.00          0          0          0
  proximity        :       0.00       0.00          0          0          0
  pscostdiving     :      71.88       0.00        822          0          0
  randrounding     :       2.06       0.00       6477          0          0
  rens             :       0.00       0.00          0          0          0
  reoptsols        :       0.00       0.00          0          0          0
  repair           :       0.00       0.00          0          0          0
  rins             :       8.44       0.00          1          1          1
  rootsoldiving    :       2.81       0.00         18          0          0
  rounding         :       0.74       0.00       6393          0          0
  shiftandpropagate:       0.02       0.00          1          0          0
  shifting         :       1.52       0.00       1571          0          0
  simplerounding   :       0.17       0.00          0          0          0
  subnlp           :       4.38       0.00         13          1          1
  trivial          :       0.00       0.00          2          0          0
  trivialnegation  :       0.00       0.00          0          0          0
  trustregion      :       0.00       0.00          0          0          0
  trysol           :       0.12       0.00          0          0          0
  twoopt           :       0.00       0.00          0          0          0
  undercover       :       0.25       0.00          1          0          0
  vbounds          :       0.00       0.00          0          0          0
  veclendiving     :      30.38       0.00        823          0          0
  zeroobj          :       0.00       0.00          0          0          0
  zirounding       :       0.05       0.00       1000          0          0
  other solutions  :          -          -          -          0          -
Diving (single)    :      Calls      Nodes   LP Iters Backtracks  Conflicts   MinDepth   MaxDepth   AvgDepth  RoundSols  NLeafSols  MinSolDpt  MaxSolDpt  AvgSolDpt
  actconsdiving    :          0          -          -          -          -          -          -          -          -          -          -          -          -
  coefdiving       :          0          -          -          -          -          -          -          -          -          -          -          -          -
  conflictdiving   :        561      19378     503551         19          8         40         55       51.4          0          -          -          -          -
  distributiondivin:        822      17652     566483          9          4         15         55       38.3          0          -          -          -          -
  farkasdiving     :          0          -          -          -          -          -          -          -          -          -          -          -          -
  fracdiving       :        823      30290     610327          6          1         46         55       53.4          0          -          -          -          -
  guideddiving     :        826      29104     682287          3          1         42         55       52.4          0          -          -          -          -
  indicatordiving  :          0          -          -          -          -          -          -          -          -          -          -          -          -
  linesearchdiving :        827      21047     477230          0          0         30         54       42.6          0          -          -          -          -
  pscostdiving     :        822      31570     792168          2          1         42         55       54.2          0          -          -          -          -
  veclendiving     :        823       4521     332944          6          0         14         32       22.3          0          -          -          -          -
Diving (adaptive)  :      Calls      Nodes   LP Iters Backtracks  Conflicts   MinDepth   MaxDepth   AvgDepth  RoundSols  NLeafSols  MinSolDpt  MaxSolDpt  AvgSolDpt
  actconsdiving    :         11         64       4566          0          0         16         27       21.9          0          -          -          -          -
  coefdiving       :          6         33       2303          0          0         20         26       22.2          0          -          -          -          -
  conflictdiving   :          0          -          -          -          -          -          -          -          -          -          -          -          -
  distributiondivin:          0          -          -          -          -          -          -          -          -          -          -          -          -
  farkasdiving     :          0          -          -          -          -          -          -          -          -          -          -          -          -
  fracdiving       :          6        226       4716          0          0         51         55       53.8          0          -          -          -          -
  guideddiving     :         11        385       8808          0          0         43         55       50.9          0          -          -          -          -
  indicatordiving  :          0          -          -          -          -          -          -          -          -          -          -          -          -
  linesearchdiving :          8        215       4860          0          0         40         48       43.6          0          -          -          -          -
  pscostdiving     :          3        132       2757          0          0         54         55       54.7          0          -          -          -          -
  veclendiving     :         11         60       4621          0          0         15         27       19.7          0          -          -          -          -
Neighborhoods      :      Calls  SetupTime  SolveTime SolveNodes       Sols       Best       Exp3  EpsGreedy        UCB TgtFixRate  Opt  Inf Node Stal  Sol  Usr Othr Actv
  rens             :          1       0.01       0.00          0          0          0    0.00000   -1.00000    0.56070      0.700    0    1    0    0    0    0    0    1
  rins             :          1       0.01       0.44          1          0          0    0.00000   -1.00000    0.55961      0.700    0    1    0    0    0    0    0    1
  mutation         :          2       0.03       2.79         63          1          1    0.00000   -1.00000    0.67276      0.850    1    0    0    1    0    0    0    1
  localbranching   :          1       0.01       0.90          1          0          0    0.00000   -1.00000    0.55961      0.700    0    1    0    0    0    0    0    1
  crossover        :          1       0.01       1.00          3          0          0    0.00000   -1.00000    0.55961      0.700    0    1    0    0    0    0    0    1
  proximity        :          1       0.02       0.57          1          0          0    0.00000   -1.00000    0.55961      0.700    0    1    0    0    0    0    0    1
  zeroobjective    :          1       0.00       0.00          0          0          0    0.00000   -1.00000    0.06070      0.900    0    0    0    0    0    0    1    1
  dins             :          1       0.01       0.92          1          0          0    0.00000   -1.00000    0.55961      0.700    0    1    0    0    0    0    0    1
  trustregion      :          0       0.00       0.00          0          0          0    0.00000   -1.00000    1.00000      0.900    0    0    0    0    0    0    0    0
Expressions        :   #IntEval  IntEvalTi   #RevProp  RevPropTi    DomReds    Cutoffs  #Estimate  EstimTime  Branching  #Simplify SimplifyTi Simplified
  pow              :   12647938       2.70    4489065       1.43    6765715          0       1013       0.00          0       1420       0.00          0
  prod             :   10422103       3.03      72188       0.27        113          0          0       0.00          0       1102       0.00        550
  sum              :   12013294       3.01    6651879       2.15     769435         18        101       0.00          0       1402       0.01        101
  var              :   28985097       6.29          0       0.00          0          0          0       0.00          0       3821       0.01          0
  varidx           :          0       0.00          0       0.00          0          0          0       0.00          0          0       0.00          0
Nonlinear Conshdlr :   WeakSepa  TightenLP DespTghtLP DespBranch DespCutoff    ForceLP  CanonTime
  enforce          :          0          0          0          0          0          0
  presolve         :                                                                         0.09
Nlhdlrs            :    Detects  DetectAll DetectTime   #IntEval  IntEvalTi   #RevProp  RevPropTi    DomReds    Cutoffs   #Enforce   EnfoTime       Cuts  Branching
  soc              :        550        550       0.00          0       0.00          0       0.00          0          0   66121663      99.82    3325724          0
  convex           :          1          1       0.00          0       0.00          0       0.00          0          0     186860       1.25     186859          0
  concave          :          0          0       0.00          0       0.00          0       0.00          0          0          0       0.00          0          0
  quotient         :          0          0       0.00          0       0.00          0       0.00          0          0          0       0.00          0          0
  quadratic        :          0          0       0.00          0       0.00          0       0.00          0          0          0       0.00          0          0
  default          :       3228      16140       0.00   35080589      20.67   11217230      20.52    7535263         18       1114       0.00        913          0
  bilinear         :          0          0       0.00          0       0.00          0       0.00          0          0          0       0.00          0          0
  perspective      :          0          0       0.01          0       0.00          0       0.00          0          0          0       0.00          0          0
LP                 :       Time      Calls Iterations  Iter/call   Iter/sec  Time-0-It Calls-0-It    ItLimit
  primal LP        :     561.12      23750          0       0.00       0.00     561.01      23750
  dual LP          :    1676.92     205097   17411890      85.04   10383.26       0.05        350
  lex dual LP      :       0.00          0          0       0.00          -
  barrier LP       :       0.00          0          0       0.00          -       0.00          0
  resolve instable :       0.00          0          0       0.00          -
  diving/probing LP:     286.49      31414    4320403     137.53   15080.47
  strong branching :      14.86        814     133469     163.97    8981.76          -          -        172
    (at root node) :          -         40       1061      26.52          -
  conflict analysis:       0.07         60        551       9.18    7871.43
NLP relaxation     :
  solve time       :       4.36 (11 calls)
  convexity        :  nonconvex (77 linear rows, 101 convex ineq., 550 nonconvex ineq., 0 nonlinear eq. or two-sided ineq.)
NLP Solvers        :  #Problems  ProblemTi    #Solves  SolveTime      #Iter  Time/Iter      #Okay #TimeLimit #IterLimit #LObjLimit #Interrupt  #NumError #EvalError  #OutOfMem #LicenseEr #OtherTerm   #GlobOpt    #LocOpt  #Feasible #LocInfeas #GlobInfea #Unbounded   #Unknown
  ipopt            :         15       8.40         26      11.20       1224       0.01         19          0          7          0          0          0          0          0          0          0          0         10          1          7          0          0          8
B&B Tree           :
  number of runs   :          1
  nodes            :      17889 (17888 internal, 1 leaves)
  feasible leaves  :          0
  infeas. leaves   :          0
  objective leaves :          0
  nodes (total)    :      17889 (17888 internal, 1 leaves)
  nodes left       :      17889
  max depth        :         25
  max depth (total):         25
  backtracks       :       5789 (32.4%)
  early backtracks :          0 (0.0%)
  nodes exc. ref.  :          0 (0.0%)
  delayed cutoffs  :          0
  repropagations   :          6 (0 domain reductions, 0 cutoffs)
  avg switch length:       8.90
  switching time   :     430.60
Estim. Tree Size   :         -1
Estimation Tree    : 35777 nodes (17888 visited, 17888 internal, 0 leaves, 17889 open), weight: 0.0000 completed 0.0441
Estimations        :      estim      value      trend resolution     smooth
  wbe              :         -1          -          -          -          -
  tree-profile     :         -1          -          -          -          -
  gap              :         -1    0.76947                     1           
  tree-weight      :         -1    0.00000                     1           
  leaf-frequency   :         -1   -0.00003                     1           
  ssg              :         -1    0.93036                     1           
  open-nodes       :         -1 17889.00000                     1           
Root Node          :
  First LP value   : -2.06077890679618e+00
  First LP Iters   :       2242 (37366.67 Iter/sec)
  First LP Time    :       0.06
  Final Dual Bound : -1.73035716088454e+00
  Final Root Iters :      12247
  Root LP Estimate : -1.48953303745231e+00
Solution           :
  Solutions found  :          4 (4 improvements)
  First Solution   : -1.11612588080736e+00   (in run 1, after 1 nodes, 0.84 seconds, depth 0, found by <feaspump>)
  Gap First Sol.   :      84.64 %
  Gap Last Sol.    :      29.98 %
  Primal Bound     : -1.25893204076282e+00   (in run 1, after 17516 nodes, 3486.27 seconds, depth 19, found by <crossover>)
  Dual Bound       : -1.63611176418037e+00
  Gap              :      29.96 %
Integrals          :      Total       Avg%
  primal-dual      :  103844.85      28.85
  primal-ref       :          -          - (not evaluated)
  dual-ref         :          -          - (not evaluated)
